problems/csplib-prob010/SocialGolfersProblem-models/noch/O2/lingeling/model_3-ord16-5-4-4-solution000001.solution
language Essence 1.3

letting Golfers be new type enum
        {Golfers_1, Golfers_2, Golfers_3, Golfers_4, Golfers_5, Golfers_6, Golfers_7, Golfers_8, Golfers_9, Golfers_10,
         Golfers_11, Golfers_12, Golfers_13, Golfers_14, Golfers_15, Golfers_16}
letting sched be {partition({Golfers_13})}
